
Gurobi 9.5.0 (mac64[arm], gurobi_cl) logging started Mon Jul  8 15:33:07 2024

Set parameter GURO_PAR_SPECIAL
Set parameter TokenServer to value "10.21.17.101"
Set parameter LogFile to value "gurobi.log"
Using license file /Users/ramprasath/gurobi.lic

Gurobi Optimizer version 9.5.0 build v9.5.0rc5 (mac64[arm])
Copyright (c) 2021, Gurobi Optimization, LLC

Read LP format model from file 1.lp
Reading time = 0.00 seconds
OBJROW: 11 rows, 7 columns, 22 nonzeros
Thread count: 8 physical cores, 8 logical processors, using up to 8 threads
Optimize a model with 11 rows, 7 columns and 22 nonzeros
Model fingerprint: 0x48bbe350
Variable types: 0 continuous, 7 integer (0 binary)
Coefficient statistics:
  Matrix range     [1e+00, 1e+00]
  Objective range  [1e+00, 1e+00]
  Bounds range     [1e+00, 1e+00]
  RHS range        [1e+00, 1e+00]
Found heuristic solution: objective -3.0000000
Presolve removed 11 rows and 7 columns
Presolve time: 0.00s
Presolve: All rows and columns removed

Explored 0 nodes (0 simplex iterations) in 0.00 seconds (0.00 work units)
Thread count was 1 (of 8 available processors)

Solution count 1: -3 
No other solutions better than -3

Optimal solution found (tolerance 1.00e-04)
Best objective -3.000000000000e+00, best bound -3.000000000000e+00, gap 0.0000%
